int NumberPatients = 165
int NumberOfRooms = 16
int NumberSurgeons = 16
int NumberOfDays = 6
Duration = [66,130,146,98,210,44,39,114,98,47,130,101,107,101,140,117,98,131,131,98,105,267,46,47,32,201,32,119,93,47,93,98,103,103,107,32,119,32,66,47,72,72,93,47,201,103,103,98,64,39,60,210,47,98,31,66,94,119,47,125,32,32,50,31,41,32,119,201,103,97,98,146,31,98,32,132,32,238,114,157,32,157,98,85,119,131,32,47,38,85,32,47,41,46,126,103,93,93,119,131,31,90,53,119,32,66,60,32,98,119,50,98,98,256,85,78,157,66,119,119,119,32,50,30,216,80,76,66,103,103,31,103,227,47,119,47,217,238,30,112,98,122,98,60,67,198,119,119,260,168,31,93,238,46,66,101,32,47,32,98,60,32,30,119,87];
Priority = [0,0,0,0,1,0,0,0,0,0,0,0,0,0,0,0,0,0,0,0,0,0,0,0,0,0,0,0,1,0,1,0,0,0,0,0,0,0,0,0,0,0,0,0,0,0,0,0,0,0,0,0,0,1,0,0,0,0,0,0,0,0,0,0,0,0,0,0,0,0,0,0,0,0,0,0,1,0,0,0,0,0,0,0,0,0,0,0,0,0,0,0,0,0,0,0,0,0,0,1,0,0,0,0,0,1,0,0,0,0,0,0,0,0,0,0,0,0,0,0,0,0,0,0,0,0,0,0,0,0,0,0,0,0,0,0,0,0,0,0,0,0,0,0,0,0,0,0,0,0,0,0,0,0,0,0,0,0,0,0,0,0,0,0,0];
Waiting = [499,213,37,178,221,232,37,375,191,36,120,98,85,315,148,43,190,172,487,63,214,382,172,81,65,200,59,30,38,23,50,150,30,431,123,24,35,92,32,113,305,141,120,67,99,113,87,21,284,39,49,218,193,116,74,494,52,120,39,141,45,57,107,66,190,135,77,256,81,149,127,141,338,53,186,387,242,150,464,56,205,45,281,389,84,86,277,59,50,25,57,99,158,228,78,43,135,183,31,548,95,178,92,73,431,198,121,35,25,312,207,172,45,480,150,186,66,23,366,80,127,64,361,297,127,39,200,169,52,31,60,70,177,35,78,281,46,60,116,128,183,261,21,119,49,86,494,183,84,52,141,289,116,354,354,21,46,366,66,108,39,95,39,315,60];
Surgeon = [7,7,4,3,5,2,6,1,3,1,1,3,1,2,4,1,8,4,4,5,6,4,9,8,4,2,1,2,1,3,3,3,2,2,6,4,1,4,4,6,1,4,4,6,10,2,7,1,5,9,2,5,3,7,2,1,1,1,3,1,4,6,5,2,3,10,10,4,7,1,5,2,6,2,3,2,5,5,6,1,4,6,6,6,3,4,7,15,1,1,7,2,5,8,1,6,10,3,3,6,3,7,5,1,8,1,1,3,4,3,12,5,16,3,1,1,2,3,4,1,5,5,6,5,7,5,5,7,3,4,4,1,5,1,3,5,5,2,10,6,3,2,1,2,1,6,5,2,4,3,1,1,3,2,5,15,4,4,4,7,4,6,6,6,3];
BlockAvailability = [[[0,0],[1,1],[0,1],[0,0],[0,0],[0,0],[0,0],[0,0],[0,0],[1,1],[0,0],[0,0],[0,0],[0,0],[1,1],[0,1]],[[0,0],[1,0],[1,0],[1,0],[0,0],[0,0],[1,0],[0,0],[0,0],[1,0],[0,0],[0,0],[0,0],[1,0],[1,1],[0,0]],[[1,1],[0,0],[0,0],[0,1],[0,0],[1,0],[0,0],[0,0],[1,1],[0,0],[1,0],[0,0],[0,0],[0,0],[0,1],[0,0]],[[0,1],[1,0],[0,1],[0,1],[0,1],[0,0],[0,0],[0,0],[1,0],[1,0],[0,0],[0,1],[0,0],[1,0],[0,0],[0,1]],[[1,1],[0,0],[0,0],[0,0],[1,0],[1,0],[1,1],[0,0],[0,0],[0,0],[1,0],[0,1],[0,1],[0,0],[0,0],[0,1]],[[0,0],[1,1],[0,1],[0,0],[0,0],[0,0],[0,1],[1,0],[0,0],[0,0],[0,0],[0,0],[0,0],[0,0],[1,1],[0,0]]];
SurgeonAvailability = [[[1,1],[1,0],[1,1],[1,0],[1,0],[1,1]],[[1,1],[0,1],[0,1],[0,1],[1,0],[1,1]],[[1,1],[1,1],[1,0],[1,1],[1,1],[1,0]],[[1,1],[1,0],[1,1],[1,1],[1,1],[0,1]],[[1,1],[1,1],[1,1],[1,1],[0,0],[1,1]],[[1,1],[1,0],[1,1],[0,1],[0,1],[1,0]],[[1,1],[1,1],[1,1],[1,1],[1,1],[1,1]],[[0,0],[1,0],[1,1],[1,1],[0,1],[1,1]],[[1,1],[0,0],[0,1],[0,1],[0,1],[1,0]],[[1,1],[0,1],[0,1],[0,0],[1,1],[1,1]],[[0,1],[0,1],[1,0],[0,1],[1,0],[1,1]],[[1,1],[0,1],[1,1],[1,0],[1,1],[0,1]],[[1,1],[1,0],[1,1],[1,1],[1,0],[1,1]],[[0,1],[0,1],[1,1],[0,1],[0,0],[1,1]],[[1,1],[1,0],[0,1],[1,1],[1,1],[0,1]],[[0,1],[1,1],[1,1],[1,1],[1,1],[1,1]]];
